Sat 19 May 19:41:54 CEST 2018
CPXPARAM_TimeLimit                               45
CPXPARAM_Threads                                 1
CPXPARAM_MIP_Strategy_CallbackReducedLP          0
Tried aggregator 3 times.
MIP Presolve eliminated 24321 rows and 8816 columns.
MIP Presolve modified 20037 coefficients.
Aggregator did 30742 substitutions.
Reduced MIP has 45094 rows, 29628 columns, and 112683 nonzeros.
Reduced MIP has 28116 binaries, 9 generals, 0 SOSs, and 2663 indicators.
Presolve time = 0.82 sec. (2521.41 ticks)
Probing time = 0.23 sec. (177.67 ticks)
Tried aggregator 3 times.
Aggregator did 22463 substitutions.
Reduced MIP has 22631 rows, 7165 columns, and 67757 nonzeros.
Reduced MIP has 5653 binaries, 1512 generals, 0 SOSs, and 2663 indicators.
Presolve time = 0.12 sec. (168.73 ticks)
Probing time = 0.11 sec. (128.28 ticks)
Tried aggregator 1 time.
Reduced MIP has 22631 rows, 7165 columns, and 67757 nonzeros.
Reduced MIP has 5653 binaries, 1512 generals, 0 SOSs, and 2663 indicators.
Presolve time = 0.05 sec. (68.59 ticks)
Probing time = 0.01 sec. (10.44 ticks)
Clique table members: 460265.
MIP emphasis: balance optimality and feasibility.
MIP search method: dynamic search.
Parallel mode: none, using 1 thread.
Root relaxation solution time = 0.71 sec. (874.39 ticks)

        Nodes                                         Cuts/
   Node  Left     Objective  IInf  Best Integer    Best Bound    ItCnt     Gap

      0     0        0.0000  4081                      0.0000     4608         
      0     0        0.0000  3865               Cliques: 5757     4976         
      0     0        0.0000  3642               Cliques: 5757     5497         

Clique cuts applied:  6500

Root node processing (before b&c):
  Real time             =   51.84 sec. (57123.60 ticks)
Sequential b&c:
  Real time             =    0.00 sec. (0.00 ticks)
                          ------------
Total (root+branch&cut) =   51.84 sec. (57123.60 ticks)
